min: 1.0Emax;
1.0Emax >= 1.0E_0_chef;
1.0Emax >= 1.0E_7_chef;
1.0Emax >= 1.0E_8_chef;
1.0Emax >= 1.0E_9_kettle;
1.0Emax >= 1.0E_9_hobsub1;
1.0Emax >= 1.0E_9_hobsub2;
1.0Emax >= 1.0E_9_ovensub1;
1.0Emax >= 1.0E_9_ovensub2;
1.0Emax >= 1.0E_10_chef;
1.0Emax >= 1.0E_11_worktop;
1.0Emax >= 1.0E_12_chef;
1.0Emax >= 1.0E_13_chef;
1.0E_0_chef >= 10.0;
1.0E_7_chef >= 10.0;
1.0E_8_chef >= 10.0;
1.0E_9_kettle >= 120.0X_9_kettle;
1.0E_9_hobsub1 >= 400.0X_9_hobsub1;
1.0E_9_hobsub2 >= 400.0X_9_hobsub2;
1.0E_9_ovensub1 >= 500.0X_9_ovensub1;
1.0E_9_ovensub2 >= 500.0X_9_ovensub2;
1.0E_10_chef >= 7.0;
1.0E_11_worktop >= 300.0;
1.0E_12_chef >= 5.0;
1.0E_13_chef >= 7.0;
1.0E_9_kettle >= 1.0E_8_chef + 120.0X_9_kettle;
1.0E_9_hobsub1 >= 1.0E_8_chef + 400.0X_9_hobsub1;
1.0E_9_hobsub2 >= 1.0E_8_chef + 400.0X_9_hobsub2;
1.0E_9_ovensub1 >= 1.0E_8_chef + 500.0X_9_ovensub1;
1.0E_9_ovensub2 >= 1.0E_8_chef + 500.0X_9_ovensub2;
1.0E_10_chef >= 1.0E_7_chef + 7.0;
1.0E_10_chef >= 1.0E_9_kettle + 7.0;
1.0E_10_chef >= 1.0E_9_hobsub1 + 7.0;
1.0E_10_chef >= 1.0E_9_hobsub2 + 7.0;
1.0E_10_chef >= 1.0E_9_ovensub1 + 7.0;
1.0E_10_chef >= 1.0E_9_ovensub2 + 7.0;
1.0E_11_worktop >= 1.0E_10_chef + 300.0;
1.0E_12_chef >= 1.0E_11_worktop + 5.0;
1.0E_13_chef >= 1.0E_0_chef + 7.0;
1.0E_13_chef >= 1.0E_12_chef + 7.0;
1.0X_9_kettle + 1.0X_9_hobsub1 + 1.0X_9_hobsub2 + 1.0X_9_ovensub1 + 1.0X_9_ovensub2 = 1.0;
1.0E_0_chef - 1.0E_7_chef >= 10.0 - 1349.0Y_0_chef_7;
1.0E_0_chef - 1.0E_8_chef >= 10.0 - 1349.0Y_0_chef_8;
1.0E_0_chef - 1.0E_10_chef >= 10.0 - 1349.0Y_0_chef_10;
1.0E_0_chef - 1.0E_12_chef >= 10.0 - 1349.0Y_0_chef_12;
1.0E_0_chef - 1.0E_13_chef >= 10.0 - 1349.0Y_0_chef_13;
1.0E_7_chef - 1.0E_0_chef >= 10.0 - 1349.0Y_7_chef_0;
1.0E_7_chef - 1.0E_8_chef >= 10.0 - 1349.0Y_7_chef_8;
1.0E_7_chef - 1.0E_10_chef >= 10.0 - 1349.0Y_7_chef_10;
1.0E_7_chef - 1.0E_12_chef >= 10.0 - 1349.0Y_7_chef_12;
1.0E_7_chef - 1.0E_13_chef >= 10.0 - 1349.0Y_7_chef_13;
1.0E_8_chef - 1.0E_0_chef >= 10.0 - 1349.0Y_8_chef_0;
1.0E_8_chef - 1.0E_7_chef >= 10.0 - 1349.0Y_8_chef_7;
1.0E_8_chef - 1.0E_10_chef >= 10.0 - 1349.0Y_8_chef_10;
1.0E_8_chef - 1.0E_12_chef >= 10.0 - 1349.0Y_8_chef_12;
1.0E_8_chef - 1.0E_13_chef >= 10.0 - 1349.0Y_8_chef_13;
1.0E_10_chef - 1.0E_0_chef >= 7.0 - 1349.0Y_10_chef_0;
1.0E_10_chef - 1.0E_7_chef >= 7.0 - 1349.0Y_10_chef_7;
1.0E_10_chef - 1.0E_8_chef >= 7.0 - 1349.0Y_10_chef_8;
1.0E_10_chef - 1.0E_12_chef >= 7.0 - 1349.0Y_10_chef_12;
1.0E_10_chef - 1.0E_13_chef >= 7.0 - 1349.0Y_10_chef_13;
1.0E_12_chef - 1.0E_0_chef >= 5.0 - 1349.0Y_12_chef_0;
1.0E_12_chef - 1.0E_7_chef >= 5.0 - 1349.0Y_12_chef_7;
1.0E_12_chef - 1.0E_8_chef >= 5.0 - 1349.0Y_12_chef_8;
1.0E_12_chef - 1.0E_10_chef >= 5.0 - 1349.0Y_12_chef_10;
1.0E_12_chef - 1.0E_13_chef >= 5.0 - 1349.0Y_12_chef_13;
1.0E_13_chef - 1.0E_0_chef >= 7.0 - 1349.0Y_13_chef_0;
1.0E_13_chef - 1.0E_7_chef >= 7.0 - 1349.0Y_13_chef_7;
1.0E_13_chef - 1.0E_8_chef >= 7.0 - 1349.0Y_13_chef_8;
1.0E_13_chef - 1.0E_10_chef >= 7.0 - 1349.0Y_13_chef_10;
1.0E_13_chef - 1.0E_12_chef >= 7.0 - 1349.0Y_13_chef_12;
1.0E_7_chef - 1.0E_0_chef >= 10.0 - 1349.0 + 1349.0Y_0_chef_7;
1.0E_8_chef - 1.0E_0_chef >= 10.0 - 1349.0 + 1349.0Y_0_chef_8;
1.0E_10_chef - 1.0E_0_chef >= 7.0 - 1349.0 + 1349.0Y_0_chef_10;
1.0E_12_chef - 1.0E_0_chef >= 5.0 - 1349.0 + 1349.0Y_0_chef_12;
1.0E_13_chef - 1.0E_0_chef >= 7.0 - 1349.0 + 1349.0Y_0_chef_13;
1.0E_0_chef - 1.0E_7_chef >= 10.0 - 1349.0 + 1349.0Y_7_chef_0;
1.0E_8_chef - 1.0E_7_chef >= 10.0 - 1349.0 + 1349.0Y_7_chef_8;
1.0E_10_chef - 1.0E_7_chef >= 7.0 - 1349.0 + 1349.0Y_7_chef_10;
1.0E_12_chef - 1.0E_7_chef >= 5.0 - 1349.0 + 1349.0Y_7_chef_12;
1.0E_13_chef - 1.0E_7_chef >= 7.0 - 1349.0 + 1349.0Y_7_chef_13;
1.0E_0_chef - 1.0E_8_chef >= 10.0 - 1349.0 + 1349.0Y_8_chef_0;
1.0E_7_chef - 1.0E_8_chef >= 10.0 - 1349.0 + 1349.0Y_8_chef_7;
1.0E_10_chef - 1.0E_8_chef >= 7.0 - 1349.0 + 1349.0Y_8_chef_10;
1.0E_12_chef - 1.0E_8_chef >= 5.0 - 1349.0 + 1349.0Y_8_chef_12;
1.0E_13_chef - 1.0E_8_chef >= 7.0 - 1349.0 + 1349.0Y_8_chef_13;
1.0E_0_chef - 1.0E_10_chef >= 10.0 - 1349.0 + 1349.0Y_10_chef_0;
1.0E_7_chef - 1.0E_10_chef >= 10.0 - 1349.0 + 1349.0Y_10_chef_7;
1.0E_8_chef - 1.0E_10_chef >= 10.0 - 1349.0 + 1349.0Y_10_chef_8;
1.0E_12_chef - 1.0E_10_chef >= 5.0 - 1349.0 + 1349.0Y_10_chef_12;
1.0E_13_chef - 1.0E_10_chef >= 7.0 - 1349.0 + 1349.0Y_10_chef_13;
1.0E_0_chef - 1.0E_12_chef >= 10.0 - 1349.0 + 1349.0Y_12_chef_0;
1.0E_7_chef - 1.0E_12_chef >= 10.0 - 1349.0 + 1349.0Y_12_chef_7;
1.0E_8_chef - 1.0E_12_chef >= 10.0 - 1349.0 + 1349.0Y_12_chef_8;
1.0E_10_chef - 1.0E_12_chef >= 7.0 - 1349.0 + 1349.0Y_12_chef_10;
1.0E_13_chef - 1.0E_12_chef >= 7.0 - 1349.0 + 1349.0Y_12_chef_13;
1.0E_0_chef - 1.0E_13_chef >= 10.0 - 1349.0 + 1349.0Y_13_chef_0;
1.0E_7_chef - 1.0E_13_chef >= 10.0 - 1349.0 + 1349.0Y_13_chef_7;
1.0E_8_chef - 1.0E_13_chef >= 10.0 - 1349.0 + 1349.0Y_13_chef_8;
1.0E_10_chef - 1.0E_13_chef >= 7.0 - 1349.0 + 1349.0Y_13_chef_10;
1.0E_12_chef - 1.0E_13_chef >= 5.0 - 1349.0 + 1349.0Y_13_chef_12;
bin X_9_kettle,X_9_hobsub1,X_9_hobsub2,X_9_ovensub1,X_9_ovensub2;
bin Y_0_chef_7,Y_0_chef_8,Y_0_chef_10,Y_0_chef_12,Y_0_chef_13,Y_7_chef_0,Y_7_chef_8,Y_7_chef_10,Y_7_chef_12,Y_7_chef_13,Y_8_chef_0,Y_8_chef_7,Y_8_chef_10,Y_8_chef_12,Y_8_chef_13,Y_10_chef_0,Y_10_chef_7,Y_10_chef_8,Y_10_chef_12,Y_10_chef_13,Y_12_chef_0,Y_12_chef_7,Y_12_chef_8,Y_12_chef_10,Y_12_chef_13,Y_13_chef_0,Y_13_chef_7,Y_13_chef_8,Y_13_chef_10,Y_13_chef_12;